176309 10677.9
66865.4 102990
178237 8654.17
67704.6 102409
5332.95 180226
111293 71342.8
43154.4 135221
174551 12530.3
59461.2 122825
135519 48448.1
70276.2 102225
15658.2 158928
89403.3 83348.7
169803 15527.2
172547 14219.2
83920.1 97614
85457 87402.6
53419.4 128226
127674 58520.8
92282.9 81382.4
128965 53365.6
123773 60139.3
139509 42771.9
29446.8 150203
99391.1 80912.6
107118 78007.2
109305 73987.7
51062.1 133255
8269.76 172569
148959 32749.6
75154.3 101880
134063 51456.8
148845 34310.7
72509 101965
114511 65687.3
41599.7 136536
79360.5 98532.9
40355.2 136989
137887 45366.9
33754.6 144013
120840 61352.2
91542 83219.6
66140.7 110544
166255 19346.5
142480 37362.4
60050.3 114854
24748 154542
88589.1 87282.5
60164 114769
100265 78626.5
33953.7 141341
106841 78208.9
88963.7 86748.4
75790.2 101739
73128.9 101953
60872.3 114467
112072 65813.9
37560.1 138594
